36201 40426 
35612 40569 
35708 40534 
34915 40656 
35307 40628 
34805 40693 
34928 40649 
36105 40430 
34438 40733 
37429 40202 
37817 40011 
38137 39838 
38435 39687 
37651 40024 
38531 39683 
38057 39885 
38310 39756 
36824 40251 
36744 40298 
39218 39247 
38596 39642 
38820 39504 
38122 39844 
39073 39321 
36889 40210 
36655 40360 
36809 40257 
39828 38790 
39325 39163 
39683 38864 
39935 38706 
